matrix = [|
  8, 27, 19, 5, 10, 6, 2, 32, 13, 26, 9, 0, 0, 0, 0, 0, 0, 0, 0, 0, 0, 0, 0, 0, 0, 0, 0, 0, 0, 0, 0, 0, 0, 0, 0 |
  11, 6, 8, 33, 1, 31, 20, 24, 32, 34, 23, 18, 10, 22, 15, 17, 9, 27, 3, 12, 2, 0, 0, 0, 0, 0, 0, 0, 0, 0, 0, 0, 0, 0, 0 |
  31, 18, 22, 30, 3, 1, 5, 13, 11, 25, 32, 20, 10, 8, 4, 0, 0, 0, 0, 0, 0, 0, 0, 0, 0, 0, 0, 0, 0, 0, 0, 0, 0, 0, 0 |
  16, 1, 6, 29, 22, 3, 26, 23, 17, 20, 8, 11, 10, 9, 25, 15, 2, 4, 13, 5, 32, 0, 0, 0, 0, 0, 0, 0, 0, 0, 0, 0, 0, 0, 0 |
  20, 22, 27, 18, 9, 15, 19, 6, 33, 12, 13, 8, 17, 14, 1, 31, 4, 32, 35, 25, 0, 0, 0, 0, 0, 0, 0, 0, 0, 0, 0, 0, 0, 0, 0 |
  23, 10, 22, 26, 18, 24, 31, 30, 17, 25, 11, 1, 8, 6, 9, 19, 4, 13, 12, 5, 0, 0, 0, 0, 0, 0, 0, 0, 0, 0, 0, 0, 0, 0, 0 |
  10, 34, 31, 5, 29, 6, 11, 19, 26, 24, 20, 30, 13, 15, 8, 0, 0, 0, 0, 0, 0, 0, 0, 0, 0, 0, 0, 0, 0, 0, 0, 0, 0, 0, 0 |
  34, 31, 12, 16, 13, 15, 32, 0, 0, 0, 0, 0, 0, 0, 0, 0, 0, 0, 0, 0, 0, 0, 0, 0, 0, 0, 0, 0, 0, 0, 0, 0, 0, 0, 0 |
  31, 11, 35, 2, 34, 9, 17, 19, 32, 3, 14, 12, 25, 4, 7, 21, 23, 26, 13, 5, 18, 0, 0, 0, 0, 0, 0, 0, 0, 0, 0, 0, 0, 0, 0 |
  25, 10, 20, 26, 9, 4, 12, 11, 22, 31, 13, 15, 5, 30, 0, 0, 0, 0, 0, 0, 0, 0, 0, 0, 0, 0, 0, 0, 0, 0, 0, 0, 0, 0, 0 |
  13, 6, 32, 26, 34, 24, 14, 29, 16, 22, 11, 2, 21, 18, 7, 30, 1, 27, 15, 0, 0, 0, 0, 0, 0, 0, 0, 0, 0, 0, 0, 0, 0, 0, 0 |
  23, 6, 27, 31, 16, 22, 25, 5, 17, 29, 24, 11, 32, 30, 33, 19, 0, 0, 0, 0, 0, 0, 0, 0, 0, 0, 0, 0, 0, 0, 0, 0, 0, 0, 0 |
  3, 30, 1, 34, 15, 5, 25, 18, 27, 32, 2, 13, 4, 29, 11, 33, 26, 31, 23, 0, 0, 0, 0, 0, 0, 0, 0, 0, 0, 0, 0, 0, 0, 0, 0 |
  12, 22, 2, 3, 26, 25, 32, 19, 27, 34, 15, 24, 11, 8, 0, 0, 0, 0, 0, 0, 0, 0, 0, 0, 0, 0, 0, 0, 0, 0, 0, 0, 0, 0, 0 |
  6, 20, 11, 5, 8, 25, 27, 16, 4, 34, 26, 12, 13, 14, 35, 30, 28, 7, 33, 23, 15, 0, 0, 0, 0, 0, 0, 0, 0, 0, 0, 0, 0, 0, 0 |
  4, 22, 31, 30, 25, 15, 3, 29, 2, 19, 11, 18, 0, 0, 0, 0, 0, 0, 0, 0, 0, 0, 0, 0, 0, 0, 0, 0, 0, 0, 0, 0, 0, 0, 0 |
  20, 26, 4, 8, 32, 1, 22, 23, 0, 0, 0, 0, 0, 0, 0, 0, 0, 0, 0, 0, 0, 0, 0, 0, 0, 0, 0, 0, 0, 0, 0, 0, 0, 0, 0 |
  17, 12, 14, 26, 20, 9, 6, 21, 1, 22, 18, 23, 35, 15, 16, 7, 4, 10, 13, 5, 0, 0, 0, 0, 0, 0, 0, 0, 0, 0, 0, 0, 0, 0, 0 |
  27, 2, 8, 34, 17, 20, 33, 5, 0, 0, 0, 0, 0, 0, 0, 0, 0, 0, 0, 0, 0, 0, 0, 0, 0, 0, 0, 0, 0, 0, 0, 0, 0, 0, 0 |
  20, 6, 5, 8, 24, 32, 29, 0, 0, 0, 0, 0, 0, 0, 0, 0, 0, 0, 0, 0, 0, 0, 0, 0, 0, 0, 0, 0, 0, 0, 0, 0, 0, 0, 0 |
  13, 10, 25, 9, 27, 18, 22, 5, 30, 12, 20, 26, 8, 19, 34, 32, 0, 0, 0, 0, 0, 0, 0, 0, 0, 0, 0, 0, 0, 0, 0, 0, 0, 0, 0 |
  13, 9, 23, 20, 33, 28, 4, 21, 22, 35, 27, 12, 25, 24, 3, 2, 34, 29, 10, 0, 0, 0, 0, 0, 0, 0, 0, 0, 0, 0, 0, 0, 0, 0, 0 |
  8, 30, 18, 11, 6, 17, 31, 27, 19, 0, 0, 0, 0, 0, 0, 0, 0, 0, 0, 0, 0, 0, 0, 0, 0, 0, 0, 0, 0, 0, 0, 0, 0, 0, 0 |
  10, 3, 28, 20, 21, 31, 33, 5, 22, 12, 15, 11, 0, 0, 0, 0, 0, 0, 0, 0, 0, 0, 0, 0, 0, 0, 0, 0, 0, 0, 0, 0, 0, 0, 0 |
  15, 29, 6, 30, 27, 18, 17, 16, 34, 2, 32, 10, 3, 33, 8, 5, 25, 19, 31, 0, 0, 0, 0, 0, 0, 0, 0, 0, 0, 0, 0, 0, 0, 0, 0 |
  5, 23, 27, 30, 29, 20, 11, 22, 34, 35, 31, 9, 15, 0, 0, 0, 0, 0, 0, 0, 0, 0, 0, 0, 0, 0, 0, 0, 0, 0, 0, 0, 0, 0, 0 |
  19, 17, 18, 13, 11, 25, 1, 0, 0, 0, 0, 0, 0, 0, 0, 0, 0, 0, 0, 0, 0, 0, 0, 0, 0, 0, 0, 0, 0, 0, 0, 0, 0, 0, 0 |
  4, 8, 25, 1, 32, 18, 17, 15, 20, 22, 10, 9, 2, 13, 26, 19, 33, 6, 5, 3, 11, 0, 0, 0, 0, 0, 0, 0, 0, 0, 0, 0, 0, 0, 0 |
  17, 20, 25, 1, 34, 29, 31, 16, 13, 32, 26, 21, 19, 27, 30, 3, 2, 15, 5, 4, 35, 0, 0, 0, 0, 0, 0, 0, 0, 0, 0, 0, 0, 0, 0 |
  9, 8, 24, 12, 7, 29, 14, 28, 2, 30, 32, 10, 26, 11, 25, 15, 13, 17, 0, 0, 0, 0, 0, 0, 0, 0, 0, 0, 0, 0, 0, 0, 0, 0, 0 |
  26, 5, 3, 34, 4, 32, 30, 25, 33, 1, 28, 14, 7, 20, 10, 22, 19, 2, 18, 0, 0, 0, 0, 0, 0, 0, 0, 0, 0, 0, 0, 0, 0, 0, 0 |
  12, 29, 34, 15, 20, 24, 1, 17, 16, 11, 8, 31, 18, 5, 6, 27, 19, 30, 0, 0, 0, 0, 0, 0, 0, 0, 0, 0, 0, 0, 0, 0, 0, 0, 0 |
  31, 27, 2, 19, 24, 34, 33, 12, 20, 3, 17, 29, 1, 16, 8, 0, 0, 0, 0, 0, 0, 0, 0, 0, 0, 0, 0, 0, 0, 0, 0, 0, 0, 0, 0 |
  20, 16, 13, 9, 10, 5, 8, 6, 25, 3, 24, 26, 2, 23, 7, 31, 15, 28, 11, 32, 0, 0, 0, 0, 0, 0, 0, 0, 0, 0, 0, 0, 0, 0, 0 |
  10, 16, 6, 28, 1, 29, 21, 12, 11, 35, 20, 19, 25, 9, 33, 15, 0, 0, 0, 0, 0, 0, 0, 0, 0, 0, 0, 0, 0, 0, 0, 0, 0, 0, 0 |
  6, 12, 15, 27, 31, 30, 32, 13, 29, 23, 18, 25, 11, 8, 9, 20, 1, 0, 0, 0, 0, 0, 0, 0, 0, 0, 0, 0, 0, 0, 0, 0, 0, 0, 0 |
  12, 1, 2, 29, 33, 26, 22, 19, 9, 17, 23, 34, 25, 30, 15, 31, 3, 18, 0, 0, 0, 0, 0, 0, 0, 0, 0, 0, 0, 0, 0, 0, 0, 0, 0 |
  20, 15, 2, 22, 7, 31, 28, 16, 3, 18, 17, 11, 0, 0, 0, 0, 0, 0, 0, 0, 0, 0, 0, 0, 0, 0, 0, 0, 0, 0, 0, 0, 0, 0, 0 |
  8, 4, 34, 3, 15, 28, 19, 7, 17, 2, 16, 0, 0, 0, 0, 0, 0, 0, 0, 0, 0, 0, 0, 0, 0, 0, 0, 0, 0, 0, 0, 0, 0, 0, 0 |
  33, 28, 30, 4, 26, 9, 22, 6, 10, 7, 8, 32, 0, 0, 0, 0, 0, 0, 0, 0, 0, 0, 0, 0, 0, 0, 0, 0, 0, 0, 0, 0, 0, 0, 0 |
|];
